c uprop, v00.0, 
c reading from data/prog539.c.cnf
c done reading: 0.002785
p cnf 187 884
-92 -113 0
-92 -109 0
92 109 113 0
-86 109 113 0
-86 -109 -113 0
86 109 -113 0
86 -109 113 0
92 -104 0
-102 -104 0
-92 102 104 0
-92 -97 102 0
92 -97 -102 0
92 97 102 0
-92 97 -102 0
-93 104 0
-90 -93 0
90 93 -104 0
-88 90 -104 0
-88 -90 104 0
88 90 104 0
88 -90 -104 0
-87 93 0
-84 -87 0
84 87 -93 0
84 -93 -111 0
-84 93 -111 0
84 93 111 0
-84 -93 111 0
87 -115 0
-106 -115 0
-87 106 115 0
-87 106 -116 0
87 -106 -116 0
87 106 116 0
-87 -106 116 0
115 -117 0
-99 -117 0
99 -115 117 0
99 -115 -118 0
-99 115 -118 0
99 115 118 0
-99 -115 118 0
117 -119 0
-95 -119 0
95 -117 119 0
95 -117 -120 0
-95 117 -120 0
95 117 120 0
-95 -117 120 0
109 -121 0
113 -121 0
-109 -113 121 0
-109 -113 -122 0
109 113 -122 0
-109 113 122 0
109 -113 122 0
-102 -109 123 0
-102 -121 123 0
-109 -121 123 0
102 109 -123 0
102 121 -123 0
109 121 -123 0
102 -123 -124 0
109 -123 -124 0
121 -123 -124 0
-102 123 124 0
-109 123 124 0
-121 123 124 0
-102 -109 -121 124 0
102 109 121 -124 0
-90 -102 125 0
-90 -123 125 0
-102 -123 125 0
90 102 -125 0
90 123 -125 0
102 123 -125 0
90 -125 -126 0
102 -125 -126 0
123 -125 -126 0
-90 125 126 0
-102 125 126 0
-123 125 126 0
-90 -102 -123 126 0
90 102 123 -126 0
-84 -90 127 0
-84 -125 127 0
-90 -125 127 0
84 90 -127 0
84 125 -127 0
90 125 -127 0
-82 84 -127 0
-82 90 -127 0
-82 125 -127 0
82 -84 127 0
82 -90 127 0
82 -125 127 0
82 -84 -90 -125 0
-82 84 90 125 0
81 -84 -106 0
81 -106 -127 0
81 -84 -127 0
-81 84 106 0
-81 106 127 0
-81 84 127 0
-80 -81 106 0
-80 -81 84 0
-80 -81 127 0
80 81 -106 0
80 81 -84 0
80 81 -127 0
80 -84 -106 -127 0
-80 84 106 127 0
79 -99 -106 0
79 -81 -99 0
79 -81 -106 0
-79 99 106 0
-79 81 99 0
-79 81 106 0
-78 -79 99 0
-78 -79 106 0
-78 -79 81 0
78 79 -99 0
78 79 -106 0
78 79 -81 0
78 -81 -99 -106 0
-78 81 99 106 0
77 -95 -99 0
77 -79 -95 0
77 -79 -99 0
-77 95 99 0
-77 79 95 0
-77 79 99 0
-77 95 -112 0
-77 99 -112 0
-77 79 -112 0
77 -95 112 0
77 -99 112 0
77 -79 112 0
-79 -95 -99 112 0
79 95 99 -112 0
95 -108 0
77 -108 0
-77 -95 108 0
-77 -95 -101 0
77 95 -101 0
77 -95 101 0
-77 95 101 0
-89 126 0
-89 113 0
89 -113 -126 0
-83 -113 -126 0
-83 113 126 0
83 113 -126 0
83 -113 126 0
-82 105 -109 0
-82 -89 105 0
-89 105 -109 0
82 -105 109 0
82 89 -105 0
89 -105 109 0
82 -98 -105 0
-98 -105 109 0
89 -98 -105 0
-82 98 105 0
98 105 -109 0
-89 98 105 0
-82 -89 98 -109 0
82 89 -98 109 0
-80 94 -102 0
-80 94 -105 0
94 -102 -105 0
80 -94 102 0
80 -94 105 0
-94 102 105 0
-76 80 -94 0
-76 -94 102 0
-76 -94 105 0
76 -80 94 0
76 94 -102 0
76 94 -105 0
76 -80 -102 -105 0
-76 80 102 105 0
75 -78 -90 0
75 -78 -94 0
75 -90 -94 0
-75 78 90 0
-75 78 94 0
-75 90 94 0
-74 -75 78 0
-74 -75 90 0
-74 -75 94 0
74 75 -78 0
74 75 -90 0
74 75 -94 0
74 -78 -90 -94 0
-74 78 90 94 0
73 -84 -112 0
73 -75 -112 0
73 -75 -84 0
-73 84 112 0
-73 75 112 0
-73 75 84 0
-72 -73 112 0
-72 -73 84 0
-72 -73 75 0
72 73 -112 0
72 73 -84 0
72 73 -75 0
72 -75 -84 -112 0
-72 75 84 112 0
71 -101 -106 0
71 -73 -101 0
71 -73 -106 0
-71 101 106 0
-71 73 101 0
-71 73 106 0
-70 -71 101 0
-70 -71 106 0
-70 -71 73 0
70 71 -101 0
70 71 -106 0
70 71 -73 0
70 -73 -101 -106 0
-70 73 101 106 0
69 -99 -108 0
69 -71 -108 0
69 -71 -99 0
-69 99 108 0
-69 71 108 0
-69 71 99 0
-68 -69 108 0
-68 -69 99 0
-68 -69 71 0
68 69 -108 0
68 69 -99 0
68 69 -71 0
68 -71 -99 -108 0
-68 71 99 108 0
-67 95 0
-67 69 0
67 -69 -95 0
-66 -69 -95 0
-66 69 95 0
66 69 -95 0
66 -69 95 0
-65 76 0
-65 113 0
65 -76 -113 0
-64 -76 -113 0
-64 76 113 0
64 -76 113 0
64 76 -113 0
63 -74 -109 0
63 -65 -74 0
63 -65 -109 0
-63 74 109 0
-63 65 74 0
-63 65 109 0
-62 -63 74 0
-62 -63 109 0
-62 -63 65 0
62 63 -74 0
62 63 -109 0
62 63 -65 0
62 -65 -74 -109 0
-62 65 74 109 0
61 -72 -102 0
61 -63 -72 0
61 -63 -102 0
-61 72 102 0
-61 63 72 0
-61 63 102 0
-61 72 -128 0
-61 102 -128 0
-61 63 -128 0
61 -72 128 0
61 -102 128 0
61 -63 128 0
-63 -72 -102 128 0
63 72 102 -128 0
-70 -90 129 0
-61 -70 129 0
-61 -90 129 0
70 90 -129 0
61 70 -129 0
61 90 -129 0
70 -129 -130 0
90 -129 -130 0
61 -129 -130 0
-70 129 130 0
-90 129 130 0
-61 129 130 0
-61 -70 -90 130 0
61 70 90 -130 0
-68 -84 131 0
-68 -129 131 0
-84 -129 131 0
68 84 -131 0
68 129 -131 0
84 129 -131 0
68 -131 -132 0
84 -131 -132 0
129 -131 -132 0
-68 131 132 0
-84 131 132 0
-129 131 132 0
-68 -84 -129 132 0
68 84 129 -132 0
-66 -106 133 0
-66 -131 133 0
-106 -131 133 0
66 106 -133 0
66 131 -133 0
106 131 -133 0
66 -133 -134 0
106 -133 -134 0
131 -133 -134 0
-66 133 134 0
-106 133 134 0
-131 133 134 0
-66 -106 -131 134 0
66 106 131 -134 0
-67 -99 135 0
-67 -133 135 0
-99 -133 135 0
67 99 -135 0
67 133 -135 0
99 133 -135 0
67 -135 -136 0
99 -135 -136 0
133 -135 -136 0
-67 135 136 0
-99 135 136 0
-133 135 136 0
-67 -99 -133 136 0
67 99 133 -136 0
95 -137 0
135 -137 0
-95 -135 137 0
-95 -135 -138 0
95 135 -138 0
-95 135 138 0
95 -135 138 0
-113 -139 0
-122 -139 0
113 122 139 0
113 122 -140 0
-113 -122 -140 0
-113 122 140 0
113 -122 140 0
139 -141 0
-124 -141 0
124 -139 141 0
124 -139 -142 0
-124 139 -142 0
124 139 142 0
-124 -139 142 0
141 -143 0
-83 -143 0
83 -141 143 0
83 -141 -144 0
-83 141 -144 0
83 141 144 0
-83 -141 144 0
143 -145 0
-98 -145 0
98 -143 145 0
98 -143 -146 0
-98 143 -146 0
98 143 146 0
-98 -143 146 0
145 -147 0
-64 -147 0
64 -145 147 0
64 -145 -148 0
-64 145 -148 0
64 145 148 0
-64 -145 148 0
147 -149 0
-62 -149 0
62 -147 149 0
62 -147 -150 0
-62 147 -150 0
62 147 150 0
-62 -147 150 0
149 -151 0
-128 -151 0
128 -149 151 0
128 -149 -152 0
-128 149 -152 0
128 149 152 0
-128 -149 152 0
151 -153 0
-130 -153 0
130 -151 153 0
130 -151 -154 0
-130 151 -154 0
130 151 154 0
-130 -151 154 0
153 -155 0
-132 -155 0
132 -153 155 0
132 -153 -156 0
-132 153 -156 0
132 153 156 0
-132 -153 156 0
155 -157 0
-134 -157 0
134 -155 157 0
134 -155 -158 0
-134 155 -158 0
134 155 158 0
-134 -155 158 0
157 -159 0
-136 -159 0
136 -157 159 0
136 -157 -160 0
-136 157 -160 0
136 157 160 0
-136 -157 160 0
159 -161 0
-138 -161 0
138 -159 161 0
138 -159 -162 0
-138 159 -162 0
138 159 162 0
-138 -159 162 0
161 -163 0
-137 -163 0
137 -161 163 0
137 -161 -164 0
-137 161 -164 0
137 161 164 0
-137 -161 164 0
-165 -167 0
-167 -168 0
165 167 168 0
165 168 -170 0
-165 -168 -170 0
-165 168 170 0
165 -168 170 0
167 -171 0
-171 -172 0
-167 171 172 0
-167 172 -174 0
167 -172 -174 0
167 172 174 0
-167 -172 174 0
171 -175 0
-175 -176 0
-171 175 176 0
-171 176 -178 0
171 -176 -178 0
171 176 178 0
-171 -176 178 0
175 -179 0
-179 -180 0
-175 179 180 0
-114 -175 180 0
-114 175 -180 0
114 175 180 0
114 -175 -180 0
-110 179 0
-110 -182 0
110 -179 182 0
-103 -179 182 0
-103 179 -182 0
103 179 182 0
103 -179 -182 0
-91 110 0
-91 -184 0
91 -110 184 0
-85 -110 184 0
-85 110 -184 0
85 110 184 0
85 -110 -184 0
91 -107 0
-107 -186 0
-91 107 186 0
-91 -100 186 0
91 -100 -186 0
91 100 186 0
-91 100 -186 0
-96 168 0
-96 165 0
96 -165 -168 0
-165 -166 -168 0
165 -166 168 0
165 166 -168 0
-165 166 168 0
-168 169 -172 0
-96 169 -172 0
-96 -168 169 0
168 -169 172 0
96 -169 172 0
96 168 -169 0
-169 172 -173 0
168 -169 -173 0
96 -169 -173 0
169 -172 173 0
-168 169 173 0
-96 169 173 0
-96 -168 -172 173 0
96 168 172 -173 0
-172 -176 177 0
-169 -176 177 0
-169 -172 177 0
172 176 -177 0
169 176 -177 0
169 172 -177 0
176 -177 -181 0
172 -177 -181 0
169 -177 -181 0
-176 177 181 0
-172 177 181 0
-169 177 181 0
-169 -172 -176 181 0
169 172 176 -181 0
-176 -180 183 0
-177 -180 183 0
-176 -177 183 0
176 180 -183 0
177 180 -183 0
176 177 -183 0
180 -183 -185 0
176 -183 -185 0
177 -183 -185 0
-180 183 185 0
-176 183 185 0
-177 183 185 0
-176 -177 -180 185 0
176 177 180 -185 0
-180 -182 187 0
-182 -183 187 0
-180 -183 187 0
180 182 -187 0
182 183 -187 0
180 183 -187 0
-60 182 -187 0
-60 180 -187 0
-60 183 -187 0
60 -182 187 0
60 -180 187 0
60 -183 187 0
60 -180 -182 -183 0
-60 180 182 183 0
59 -182 -184 0
59 -184 -187 0
59 -182 -187 0
-59 182 184 0
-59 184 187 0
-59 182 187 0
-58 -59 184 0
-58 -59 182 0
-58 -59 187 0
58 59 -184 0
58 59 -182 0
58 59 -187 0
58 -182 -184 -187 0
-58 182 184 187 0
57 -184 -186 0
57 -59 -186 0
57 -59 -184 0
-57 184 186 0
-57 59 186 0
-57 59 184 0
-56 -57 186 0
-56 -57 184 0
-56 -57 59 0
56 57 -186 0
56 57 -184 0
56 57 -59 0
56 -59 -184 -186 0
-56 59 184 186 0
-55 186 0
-55 57 0
55 -57 -186 0
-54 -57 -186 0
-54 57 186 0
54 57 -186 0
54 -57 186 0
-53 185 0
-53 165 0
53 -165 -185 0
-52 -165 -185 0
-52 165 185 0
52 165 -185 0
52 -165 185 0
51 -60 -168 0
51 -53 -60 0
51 -53 -168 0
-51 60 168 0
-51 53 60 0
-51 53 168 0
-50 -51 60 0
-50 -51 168 0
-50 -51 53 0
50 51 -60 0
50 51 -168 0
50 51 -53 0
50 -53 -60 -168 0
-50 53 60 168 0
49 -58 -172 0
49 -51 -58 0
49 -51 -172 0
-49 58 172 0
-49 51 58 0
-49 51 172 0
-48 -49 58 0
-48 -49 172 0
-48 -49 51 0
48 49 -58 0
48 49 -172 0
48 49 -51 0
48 -51 -58 -172 0
-48 51 58 172 0
47 -56 -176 0
47 -49 -56 0
47 -49 -176 0
-47 56 176 0
-47 49 56 0
-47 49 176 0
-46 -47 56 0
-46 -47 176 0
-46 -47 49 0
46 47 -56 0
46 47 -176 0
46 47 -49 0
46 -49 -56 -176 0
-46 49 56 176 0
45 -54 -180 0
45 -47 -54 0
45 -47 -180 0
-45 54 180 0
-45 47 54 0
-45 47 180 0
-44 -45 54 0
-44 -45 180 0
-44 -45 47 0
44 45 -54 0
44 45 -180 0
44 45 -47 0
44 -47 -54 -180 0
-44 47 54 180 0
43 -55 -182 0
43 -45 -55 0
43 -45 -182 0
-43 55 182 0
-43 45 55 0
-43 45 182 0
-42 -43 55 0
-42 -43 182 0
-42 -43 45 0
42 43 -55 0
42 43 -182 0
42 43 -45 0
42 -45 -55 -182 0
-42 45 55 182 0
-41 184 0
-41 43 0
41 -43 -184 0
-40 -43 -184 0
-40 43 184 0
40 43 -184 0
40 -43 184 0
-39 186 0
-39 41 0
39 -41 -186 0
-38 -41 -186 0
-38 41 186 0
38 41 -186 0
38 -41 186 0
-37 -165 0
-37 -166 0
37 165 166 0
-36 165 166 0
-36 -165 -166 0
36 -165 166 0
36 165 -166 0
-35 37 0
-35 -173 0
35 -37 173 0
-34 -37 173 0
-34 37 -173 0
34 37 173 0
34 -37 -173 0
-33 35 0
-33 -181 0
33 -35 181 0
-32 -35 181 0
-32 35 -181 0
32 35 181 0
32 -35 -181 0
-31 33 0
-31 -52 0
31 -33 52 0
-30 -33 52 0
-30 33 -52 0
30 33 52 0
30 -33 -52 0
-29 31 0
-29 -50 0
29 -31 50 0
-28 -31 50 0
-28 31 -50 0
28 31 50 0
28 -31 -50 0
-27 29 0
-27 -48 0
27 -29 48 0
-26 -29 48 0
-26 29 -48 0
26 29 48 0
26 -29 -48 0
-25 27 0
-25 -46 0
25 -27 46 0
-24 -27 46 0
-24 27 -46 0
24 27 46 0
24 -27 -46 0
-23 25 0
-23 -44 0
23 -25 44 0
-22 -25 44 0
-22 25 -44 0
22 25 44 0
22 -25 -44 0
-21 23 0
-21 -42 0
21 -23 42 0
-20 -23 42 0
-20 23 -42 0
20 23 42 0
20 -23 -42 0
-19 21 0
-19 -40 0
19 -21 40 0
-18 -21 40 0
-18 21 -40 0
18 21 40 0
18 -21 -40 0
-17 19 0
-17 -38 0
17 -19 38 0
-16 -19 38 0
-16 19 -38 0
16 19 38 0
16 -19 -38 0
-15 17 0
-15 -39 0
15 -17 39 0
-14 -17 39 0
-14 17 -39 0
14 17 39 0
14 -17 -39 0
-13 113 0
-13 165 0
13 -113 -165 0
-113 165 0
113 -165 0
12 -122 -166 0
12 -13 -122 0
12 -13 -166 0
-12 122 166 0
-12 13 122 0
-12 13 166 0
12 -122 0
12 -166 0
12 -13 0
-13 -122 -166 0
11 -124 -173 0
11 -12 -124 0
11 -12 -173 0
-11 124 173 0
-11 12 124 0
-11 12 173 0
-11 124 0
-11 173 0
-11 12 0
12 124 173 0
10 -83 -181 0
10 -11 -83 0
10 -11 -181 0
-10 83 181 0
-10 11 83 0
-10 11 181 0
-10 83 0
-10 181 0
-10 11 0
11 83 181 0
9 -52 -98 0
9 -10 -98 0
9 -10 -52 0
-9 52 98 0
-9 10 98 0
-9 10 52 0
-9 98 0
-9 52 0
-9 10 0
10 52 98 0
8 -50 -64 0
8 -9 -64 0
8 -9 -50 0
-8 50 64 0
-8 9 64 0
-8 9 50 0
8 -64 0
8 -50 0
8 -9 0
-9 -50 -64 0
7 -48 -62 0
7 -8 -62 0
7 -8 -48 0
-7 48 62 0
-7 8 62 0
-7 8 48 0
7 -62 0
7 -48 0
7 -8 0
-8 -48 -62 0
6 -46 -128 0
6 -7 -128 0
6 -7 -46 0
-6 46 128 0
-6 7 128 0
-6 7 46 0
6 -128 0
6 -46 0
6 -7 0
-7 -46 -128 0
5 -44 -130 0
5 -6 -130 0
5 -6 -44 0
-5 44 130 0
-5 6 130 0
-5 6 44 0
5 -130 0
5 -44 0
5 -6 0
-6 -44 -130 0
4 -42 -132 0
4 -5 -132 0
4 -5 -42 0
-4 42 132 0
-4 5 132 0
-4 5 42 0
4 -132 0
4 -42 0
4 -5 0
-5 -42 -132 0
3 -40 -134 0
3 -4 -134 0
3 -4 -40 0
-3 40 134 0
-3 4 134 0
-3 4 40 0
3 -134 0
3 -40 0
3 -4 0
-4 -40 -134 0
2 -38 -136 0
2 -3 -136 0
2 -3 -38 0
-2 38 136 0
-2 3 136 0
-2 3 38 0
2 -136 0
2 -38 0
2 -3 0
-3 -38 -136 0
1 -39 -138 0
1 -2 -138 0
1 -2 -39 0
-1 39 138 0
-1 2 138 0
-1 2 39 0
1 -138 0
1 -39 0
1 -2 0
-2 -39 -138 0
-1 -137 0
1 -137 0
-1 137 0
